minizinc/sudoku_problems2/sudoku_p10.dzn
%
% sudoku_p10.dzn
% See http://www.hakank.org/minizinc/sudoku_gcc.mzn
% 
% This problem is problem 10 from
% Gecode's sudoku.cpp
% http://www.gecode.org/gecode-doc-latest/sudoku_8cpp-source.html
% 
x = array2d(1..n, 1..n, [   
% Puzzle 5 from http://www.sudoku.org.uk/bifurcation.htm
% 10
  _,  _,  _,  7,  _,  _,  3,  _,  _,
  _,  6,  _,  _,  _,  _,  5,  7,  _,
  _,  7,  3,  8,  _,  _,  4,  1,  _,
  _,  _,  9,  2,  8,  _,  _,  _,  _,
  5,  _,  _,  _,  _,  _,  _,  _,  9,
  _,  _,  _,  _,  9,  3,  6,  _,  _,
  _,  9,  8,  _,  _,  7,  1,  5,  _,
  _,  5,  4,  _,  _,  _,  _,  6,  _,
  _,  _,  1,  _,  _,  9,  _,  _,  _
]);

n = 9;


